(set-logic QF_S)
(declare-fun D () String)
(declare-fun A () String)
(assert (= (str.++  D "abb" A "ccbbcbcb")  (str.++  D "abb" D "acabababbccbaacc" D "abcaaab" D "cabcbbcbcbbaa" D "cbbcbcb") ))
(check-sat)
(get-model)
